p tw 82 194
0 1
0 32
0 33
0 34
1 23
1 24
2 3
2 4
2 5
2 21
2 67
2 78
3 4
3 5
3 13
3 46
3 53
4 5
4 22
4 66
5 20
6 7
6 8
6 9
6 26
6 40
7 8
7 9
7 25
7 30
7 31
8 9
8 34
8 60
8 73
9 41
10 11
10 73
11 60
11 61
11 62
11 63
12 13
12 14
12 45
13 14
13 46
13 53
14 27
14 28
14 29
15 16
15 39
15 69
15 72
15 81
16 48
17 18
17 19
17 65
17 68
17 71
18 19
18 56
19 55
19 57
19 69
19 70
20 21
20 22
21 22
21 67
21 78
22 66
23 24
23 33
23 62
23 74
24 32
24 61
24 75
24 76
25 26
25 30
25 31
26 40
27 28
27 29
27 52
27 63
28 29
28 47
29 51
29 53
30 31
30 40
30 41
31 42
31 43
31 44
32 33
32 34
32 61
32 75
32 76
33 34
33 62
33 74
34 60
34 73
35 36
35 47
35 74
35 76
36 75
37 38
37 39
37 77
38 39
38 57
38 58
38 59
39 69
39 72
39 81
40 41
42 43
42 44
42 49
43 44
43 56
43 71
44 50
44 68
45 46
46 53
47 74
47 76
48 59
48 64
48 72
49 50
50 68
51 52
51 53
52 63
54 55
54 79
55 57
55 69
55 70
56 71
57 58
57 59
57 69
57 70
58 59
58 77
58 80
58 81
59 64
59 72
60 61
60 62
60 63
60 73
61 62
61 63
61 75
61 76
62 63
62 74
64 65
64 72
65 68
65 71
66 67
67 78
68 71
69 70
69 72
69 81
70 78
70 79
70 80
72 81
74 76
75 76
77 80
77 81
78 79
78 80
79 80
80 81
